Reading model...
...model read.
creating competitive generators file...
...competitive generators recorded.
Loading data...
.. real-time data read.
Compiling instance...
...instance created.
Creating Offer Mitigation (model will solve as dispatch if TRUE)...
NOTE: storage offers will not be mitigated
...storage offer mitigation file created
Converting model to MPEC...
...converted
NOTE: initial MIP solve with only storage competitive to get feasible solution
Solving...

Welcome to IBM(R) ILOG(R) CPLEX(R) Interactive Optimizer 12.9.0.0
  with Simplex, Mixed Integer & Barrier Optimizers
5725-A06 5725-A29 5724-Y48 5724-Y49 5724-Y54 5724-Y55 5655-Y21
Copyright IBM Corp. 1988, 2019.  All Rights Reserved.

Type 'help' for a list of available commands.
Type 'help' followed by a command name for more
information on commands.

CPLEX> Logfile 'cplex.log' closed.
Logfile 'C:\Users\llavin\Desktop\test826\logs\tmp58ziesxa.cplex.log' open.
CPLEX> New value for parallel optimization mode: -1
CPLEX> New value for emphasis for MIP optimization: 1
CPLEX> New value for mixed integer optimality gap tolerance: 0.01
CPLEX> New value for integrality tolerance: 1e-12
CPLEX> New value for deterministic time limit in ticks: 65000
CPLEX> Problem 'C:\Users\llavin\Desktop\test826\logs\tmp3e_gfvhl.pyomo.lp' read.
Read time = 0.49 sec. (28.91 ticks)
CPLEX> Problem name         : C:\Users\llavin\Desktop\test826\logs\tmp3e_gfvhl.pyomo.lp
Objective sense      : Maximize
Variables            :  107803  [Nneg: 1,  Box: 44062,  Free: 8928,
                                 Binary: 54812]
Objective nonzeros   :   17280
Linear constraints   :  246963  [Less: 82886,  Greater: 118460,  Equal: 45617]
  Nonzeros           :  620741
  RHS nonzeros       :  134923

Variables            : Min LB: -5000.000        Max UB: 1000000.       
Objective nonzeros   : Min   : 0.1944444        Max   : 180.0000       
Linear constraints   :
  Nonzeros           : Min   : 0.1944444        Max   : 1000000.       
  RHS nonzeros       : Min   : 0.1944444        Max   : 1000000.       
CPLEX> CPXPARAM_Parallel                                -1
CPXPARAM_Emphasis_MIP                            1
CPXPARAM_DetTimeLimit                            65000
CPXPARAM_MIP_Tolerances_MIPGap                   0.01
CPXPARAM_MIP_Tolerances_Integrality              9.9999999999999998e-13
Tried aggregator 3 times.
MIP Presolve eliminated 181519 rows and 41473 columns.
MIP Presolve added 6096 rows and 0 columns.
MIP Presolve modified 49398 coefficients.
Aggregator did 25928 substitutions.
Reduced MIP has 45612 rows, 38770 columns, and 157931 nonzeros.
Reduced MIP has 15250 binaries, 0 generals, 0 SOSs, and 0 indicators.
Presolve time = 0.58 sec. (394.24 ticks)
Probing fixed 907 vars, tightened 9526 bounds.
Probing time = 0.39 sec. (14.73 ticks)
Tried aggregator 2 times.
MIP Presolve eliminated 2053 rows and 1814 columns.
MIP Presolve modified 5397 coefficients.
Aggregator did 48 substitutions.
Reduced MIP has 43511 rows, 36908 columns, and 151744 nonzeros.
Reduced MIP has 14343 binaries, 0 generals, 0 SOSs, and 0 indicators.
Presolve time = 0.22 sec. (219.58 ticks)
Probing fixed 0 vars, tightened 540 bounds.
Probing time = 0.48 sec. (15.64 ticks)
Clique table members: 85985.
MIP emphasis: integer feasibility.
MIP search method: dynamic search.
Parallel mode: opportunistic, using up to 32 threads.
Root relaxation solution time = 1.02 sec. (1943.61 ticks)

        Nodes                                         Cuts/
   Node  Left     Objective  IInf  Best Integer    Best Bound    ItCnt     Gap

      0     0     1712.0461   828                   1712.0461    10554         
*     0     0      integral     0     1712.0461     1712.0461    10554    0.00%
Elapsed time = 3.92 sec. (3489.16 ticks, tree = 0.01 MB, solutions = 1)

Root node processing (before b&c):
  Real time             =    3.97 sec. (3493.04 ticks)
Parallel b&c, 32 threads:
  Real time             =    0.00 sec. (0.00 ticks)
  Sync time (average)   =    0.00 sec.
  Wait time (average)   =    0.00 sec.
                          ------------
Total (root+branch&cut) =    3.97 sec. (3493.04 ticks)

Solution pool: 1 solution saved.

MIP - Integer optimal solution:  Objective =  1.7120461131e+03
Solution time =    4.00 sec.  Iterations = 10554  Nodes = 0
Deterministic time = 3493.35 ticks  (873.34 ticks/sec)

CPLEX> Incumbent solution written to file 'C:\Users\llavin\Desktop\test826\logs\tmp050btm_b.cplex.sol'.
CPLEX> NOTE: no warmstart specified for MIP iteration, default behavior is true
NOTE: resolving with all competitive generators using storage-only solution to warmstart
Solving...

Welcome to IBM(R) ILOG(R) CPLEX(R) Interactive Optimizer 12.9.0.0
  with Simplex, Mixed Integer & Barrier Optimizers
5725-A06 5725-A29 5724-Y48 5724-Y49 5724-Y54 5724-Y55 5655-Y21
Copyright IBM Corp. 1988, 2019.  All Rights Reserved.

Type 'help' for a list of available commands.
Type 'help' followed by a command name for more
information on commands.

CPLEX> Logfile 'cplex.log' closed.
Logfile 'C:\Users\llavin\Desktop\test826\logs\tmp0843yhox.cplex.log' open.
CPLEX> New value for parallel optimization mode: -1
CPLEX> New value for emphasis for MIP optimization: 1
CPLEX> New value for mixed integer optimality gap tolerance: 0.01
CPLEX> New value for integrality tolerance: 1e-12
CPLEX> New value for deterministic time limit in ticks: 65000
CPLEX> Problem 'C:\Users\llavin\Desktop\test826\logs\tmpaa36ec_o.pyomo.lp' read.
Read time = 0.45 sec. (28.95 ticks)
CPLEX> MIP start file 'C:\Users\llavin\Desktop\test826\logs\tmpu70lmmrl.cplex.mst' read.
CPLEX> Problem name         : C:\Users\llavin\Desktop\test826\logs\tmpaa36ec_o.pyomo.lp
Objective sense      : Maximize
Variables            :  109243  [Nneg: 1,  Box: 45502,  Free: 8928,
                                 Binary: 54812]
Objective nonzeros   :   18672
Linear constraints   :  246963  [Less: 82886,  Greater: 118460,  Equal: 45617]
  Nonzeros           :  620741
  RHS nonzeros       :  134923

Variables            : Min LB: -5000.000        Max UB: 1000000.       
Objective nonzeros   : Min   : 0.1944444        Max   : 180.0000       
Linear constraints   :
  Nonzeros           : Min   : 0.1944444        Max   : 1000000.       
  RHS nonzeros       : Min   : 0.1944444        Max   : 1000000.       
CPLEX> CPXPARAM_Parallel                                -1
CPXPARAM_Emphasis_MIP                            1
CPXPARAM_DetTimeLimit                            65000
CPXPARAM_MIP_Tolerances_MIPGap                   0.01
CPXPARAM_MIP_Tolerances_Integrality              9.9999999999999998e-13
Warning:  No solution found from 1 MIP starts.
Retaining values of one MIP start for possible repair.
Tried aggregator 3 times.
MIP Presolve eliminated 181519 rows and 42913 columns.
MIP Presolve added 6096 rows and 0 columns.
MIP Presolve modified 49398 coefficients.
Aggregator did 25928 substitutions.
Reduced MIP has 45612 rows, 38770 columns, and 157931 nonzeros.
Reduced MIP has 15250 binaries, 0 generals, 0 SOSs, and 0 indicators.
Presolve time = 0.55 sec. (394.95 ticks)
Probing fixed 907 vars, tightened 9526 bounds.
Probing time = 0.36 sec. (14.73 ticks)
Tried aggregator 2 times.
MIP Presolve eliminated 2053 rows and 1814 columns.
MIP Presolve modified 5397 coefficients.
Aggregator did 48 substitutions.
Reduced MIP has 43511 rows, 36908 columns, and 151744 nonzeros.
Reduced MIP has 14343 binaries, 0 generals, 0 SOSs, and 0 indicators.
Presolve time = 0.20 sec. (219.58 ticks)
Probing fixed 0 vars, tightened 540 bounds.
Probing time = 0.48 sec. (15.64 ticks)
Clique table members: 85985.
MIP emphasis: integer feasibility.
MIP search method: dynamic search.
Parallel mode: opportunistic, using up to 32 threads.
Root relaxation solution time = 0.94 sec. (1864.07 ticks)

        Nodes                                         Cuts/
   Node  Left     Objective  IInf  Best Integer    Best Bound    ItCnt     Gap

      0     0     6342.8840   827                   6342.8840    10595         
*     0+    0                         6342.8840     6342.8840             0.00%
      0     0        cutoff           6342.8840     6342.8840    10595    0.00%
Elapsed time = 4.25 sec. (3834.51 ticks, tree = 0.01 MB, solutions = 1)

Root node processing (before b&c):
  Real time             =    4.27 sec. (3838.22 ticks)
Parallel b&c, 32 threads:
  Real time             =    0.00 sec. (0.00 ticks)
  Sync time (average)   =    0.00 sec.
  Wait time (average)   =    0.00 sec.
                          ------------
Total (root+branch&cut) =    4.27 sec. (3838.22 ticks)

Solution pool: 1 solution saved.

MIP - Integer optimal solution:  Objective =  6.3428839782e+03
Solution time =    4.30 sec.  Iterations = 10595  Nodes = 0
Deterministic time = 3838.53 ticks  (893.30 ticks/sec)

CPLEX> Incumbent solution written to file 'C:\Users\llavin\Desktop\test826\logs\tmpu28ivcgo.cplex.sol'.
CPLEX> Exporting results... 
